(set-logic HORN)
(declare-fun state (Int Int Int Int Bool Int (Array Int Int) Int (Array Int Int) Bool Bool Int Int (Array Int Int) Int (Array Int Int) Int Int Int) Bool)
(assert (forall ((|.x.14| Int) (|main@%.12.i1_0_0| Int) (|main@%.1.i2_0_0| Int) (|main@%_3_0_0| Int) (|main@%assume.flag.1_0_0| Bool) (|main@%_6_0_0| Int) (|main@%shadow.mem1.1_0_0| (Array Int Int)) (|main@%_7_0_0| Int) (|main@%shadow.mem.1_0_0| (Array Int Int)) (|main@%_5_0_0| Bool) (|main@%_4_0_0| Bool) (|@nd_char_0_0| Int) (|main@%.01.i3_0_0| Int) (|main@%shadow.mem.0_0_0| (Array Int Int)) (|main@%.0.i4_0_0| Int) (|main@%shadow.mem1.0_0_0| (Array Int Int)) (|@nd_0_0| Int) (|main@%_28_0| Int) (|main@%_11_0| Int) (|.x.21| Int) (|.x.22| Int) (|main@%_7_1| Int) (|main@%_6_1| Int) (|main@%_3_1| Int) (|main@%_4_1| Bool) (|main@%_5_1| Bool) (|main@%.01.i3_2| Int) (|main@%.0.i4_2| Int) (|.x.15| Int) (|.x.16| Int) (|.x.17| Int) (|.x.18| Bool) (|.x.19| (Array Int Int)) (|.x.20| (Array Int Int)) (|main@%shadow.mem.0_2| (Array Int Int)) (|main@%shadow.mem1.0_2| (Array Int Int)) (|.xtv.1| Int) (|.xtv.2| Int)) (=> (= .x.14 0) (state |.x.14| |main@%.12.i1_0_0| |main@%.1.i2_0_0| |main@%_3_0_0| |main@%assume.flag.1_0_0| |main@%_6_0_0| |main@%shadow.mem1.1_0_0| |main@%_7_0_0| |main@%shadow.mem.1_0_0| |main@%_5_0_0| |main@%_4_0_0| |@nd_char_0_0| |main@%.01.i3_0_0| |main@%shadow.mem.0_0_0| |main@%.0.i4_0_0| |main@%shadow.mem1.0_0_0| |@nd_0_0| |main@%_28_0| |main@%_11_0|))))
(assert (forall ((|.x.14| Int) (|main@%.12.i1_0_0| Int) (|main@%.1.i2_0_0| Int) (|main@%_3_0_0| Int) (|main@%assume.flag.1_0_0| Bool) (|main@%_6_0_0| Int) (|main@%shadow.mem1.1_0_0| (Array Int Int)) (|main@%_7_0_0| Int) (|main@%shadow.mem.1_0_0| (Array Int Int)) (|main@%_5_0_0| Bool) (|main@%_4_0_0| Bool) (|@nd_char_0_0| Int) (|main@%.01.i3_0_0| Int) (|main@%shadow.mem.0_0_0| (Array Int Int)) (|main@%.0.i4_0_0| Int) (|main@%shadow.mem1.0_0_0| (Array Int Int)) (|@nd_0_0| Int) (|main@%_28_0| Int) (|main@%_11_0| Int) (|.x.21| Int) (|.x.22| Int) (|main@%_7_1| Int) (|main@%_6_1| Int) (|main@%_3_1| Int) (|main@%_4_1| Bool) (|main@%_5_1| Bool) (|main@%.01.i3_2| Int) (|main@%.0.i4_2| Int) (|.x.15| Int) (|.x.16| Int) (|.x.17| Int) (|.x.18| Bool) (|.x.19| (Array Int Int)) (|.x.20| (Array Int Int)) (|main@%shadow.mem.0_2| (Array Int Int)) (|main@%shadow.mem1.0_2| (Array Int Int)) (|.xtv.1| Int) (|.xtv.2| Int)) (=> (and (state |.x.14| |main@%.12.i1_0_0| |main@%.1.i2_0_0| |main@%_3_0_0| |main@%assume.flag.1_0_0| |main@%_6_0_0| |main@%shadow.mem1.1_0_0| |main@%_7_0_0| |main@%shadow.mem.1_0_0| |main@%_5_0_0| |main@%_4_0_0| |@nd_char_0_0| |main@%.01.i3_0_0| |main@%shadow.mem.0_0_0| |main@%.0.i4_0_0| |main@%shadow.mem1.0_0_0| |@nd_0_0| |main@%_28_0| |main@%_11_0|) (let ((.def_59 (= .x.15 1))) (let ((.def_62 (= main@%.12.i1_0_0 .x.16))) (let ((.def_65 (= main@%.1.i2_0_0 .x.17))) (let ((.def_68 (= main@%assume.flag.1_0_0 .x.18))) (let ((.def_71 (= main@%shadow.mem1.1_0_0 .x.19))) (let ((.def_74 (= main@%shadow.mem.1_0_0 .x.20))) (let ((.def_82 (= .x.17 0))) (let ((.def_84 (= .x.16 0))) (let ((.def_87 (= .x.15 2))) (let ((.def_89 (= main@%.01.i3_0_0 main@%.01.i3_2))) (let ((.def_92 (= main@%shadow.mem.0_0_0 main@%shadow.mem.0_2))) (let ((.def_94 (= main@%.0.i4_0_0 main@%.0.i4_2))) (let ((.def_97 (= main@%shadow.mem1.0_0_0 main@%shadow.mem1.0_2))) (let ((.def_109 (store main@%shadow.mem.0_0_0 (+ main@%_7_0_0 main@%.01.i3_0_0) main@%_11_0))) (let ((.def_112 (store main@%shadow.mem1.0_0_0 (+ main@%_6_0_0 main@%.0.i4_0_0) main@%_11_0))) (let ((.def_116 (<= (+ main@%_3_0_0 (* (- 1) main@%.01.i3_0_0)) 1))) (let ((.def_125 (<= main@%_6_0_0 0))) (let ((.def_126 (or (not (<= (+ main@%_6_0_0 main@%.0.i4_0_0) 0)) .def_125))) (let ((.def_130 (<= main@%_7_0_0 0))) (let ((.def_131 (or (not (<= (+ main@%_7_0_0 main@%.01.i3_0_0) 0)) .def_130))) (let ((.def_133 (not .def_130))) (let ((.def_135 (not .def_125))) (let ((.def_142 (= .x.14 1))) (let ((.def_144 (= main@%_3_0_0 main@%_3_1))) (let ((.def_146 (= main@%_6_0_0 main@%_6_1))) (let ((.def_148 (= main@%_7_0_0 main@%_7_1))) (let ((.def_150 (= main@%_5_0_0 main@%_5_1))) (let ((.def_152 (= main@%_4_0_0 main@%_4_1))) (let ((.def_157 (and main@%_5_0_0 main@%_4_0_0))) (let ((.def_178 (= (select .def_109 main@%_7_0_0) (select .def_112 main@%_6_0_0)))) (let ((.def_207 (= .x.15 3))) (let ((.def_222 (not (<= (- 1) (+ main@%.12.i1_0_0 (* (- 1) main@%_3_0_0)))))) (let ((.def_245 (= (+ main@%_6_0_0 (+ (* (- 1) main@%_7_0_0) (+ main@%_28_0 (* (- 1) main@%_11_0)))) 0))) (let ((.def_248 (= (+ main@%.1.i2_0_0 (+ main@%_7_0_0 (* (- 1) main@%_28_0))) (- 1)))) (let ((.def_252 (or .def_125 (not (<= main@%_11_0 0))))) (let ((.def_256 (or .def_130 (not (<= main@%_28_0 0))))) (let ((.def_260 (= (select main@%shadow.mem.1_0_0 main@%_28_0) (select main@%shadow.mem1.1_0_0 main@%_11_0)))) (let ((.def_265 (= .x.14 2))) (and (and (= @nd_char_0_0 .x.21) (= @nd_0_0 .x.22)) (or (or (or (or (or (and (and (= .x.14 0) (and (not (<= main@%_7_1 0)) (and (not (<= main@%_6_1 0)) (and (= (not (<= main@%_3_1 0)) main@%_4_1) (= main@%_4_1 main@%_5_1))))) (or (and (= main@%.01.i3_2 0) (and (= main@%.0.i4_2 0) (and (and (and (and (and (and main@%_4_1 .def_59) .def_62) .def_65) .def_68) .def_71) .def_74))) (and (and (and (and (and (and (and (and (not main@%_4_1) (= .x.18 (and main@%_4_1 main@%_5_1))) .def_82) .def_84) .def_87) .def_89) .def_92) .def_94) .def_97))) (and (and (and (and (and (and (and (= (+ main@%.01.i3_0_0 (* (- 1) main@%.01.i3_2)) (- 1)) (and (= (+ main@%.0.i4_0_0 (* (- 1) main@%.0.i4_2)) (- 1)) (and (= main@%shadow.mem.0_2 .def_109) (and (= main@%shadow.mem1.0_2 .def_112) (and (not .def_116) (and (and (and (and (and .def_74 (and .def_71 (and .def_68 (and .def_65 (and .def_59 .def_62))))) .def_126) .def_131) .def_133) .def_135)))))) .def_142) .def_144) .def_146) .def_148) .def_150) .def_152)) (and (= .x.20 .def_109) (and (= .x.19 .def_112) (and (= .x.18 .def_157) (and (and .def_152 (and .def_150 (and .def_148 (and .def_146 (and .def_144 (and .def_142 (and .def_116 (and .def_135 (and .def_133 (and .def_131 (and .def_126 (and .def_97 (and .def_94 (and .def_92 (and .def_89 (and .def_87 (and .def_82 .def_84))))))))))))))))) .def_178))))) (and (and (not .def_178) (and .def_152 (and .def_150 (and .def_148 (and .def_146 (and .def_144 (and .def_142 (and .def_116 (and .def_135 (and .def_133 (and .def_131 (and .def_126 (and .def_97 (and .def_94 (and .def_92 (and .def_89 (and .def_74 (and .def_71 (and .def_68 (and .def_65 (and .def_62 .def_157))))))))))))))))))))) .def_207)) (and (and (= (+ main@%.12.i1_0_0 (* (- 1) .x.16)) (- 1)) (and (= (+ main@%_7_0_0 (+ (* (- 1) main@%_28_0) .x.17)) 0) (and (= .x.18 (and main@%assume.flag.1_0_0 .def_222)) (and (and (and (and (and (and .def_152 (and .def_150 (and .def_148 (and .def_146 (and .def_144 (and .def_135 (and .def_133 (and .def_97 (and .def_94 (and .def_92 (and .def_89 (and .def_87 (and .def_71 .def_74))))))))))))) .def_245) .def_248) .def_252) .def_256) .def_260)))) .def_265)) (and (not .def_260) (and .def_265 (and .def_222 (and .def_256 (and .def_252 (and .def_248 (and .def_245 (and .def_207 (and .def_152 (and .def_150 (and .def_148 (and .def_146 (and .def_144 (and .def_135 (and .def_133 (and .def_97 (and .def_94 (and .def_92 (and .def_89 (and .def_74 (and .def_71 (and .def_68 (and .def_65 (and main@%assume.flag.1_0_0 .def_62))))))))))))))))))))))))))))))))))))))))))))))))))))))))))))))))) (state |.x.15| |.x.16| |.x.17| |main@%_3_1| |.x.18| |main@%_6_1| |.x.19| |main@%_7_1| |.x.20| |main@%_5_1| |main@%_4_1| |.x.21| |main@%.01.i3_2| |main@%shadow.mem.0_2| |main@%.0.i4_2| |main@%shadow.mem1.0_2| |.x.22| |.xtv.1| |.xtv.2|))))
(assert (forall ((|.x.14| Int) (|main@%.12.i1_0_0| Int) (|main@%.1.i2_0_0| Int) (|main@%_3_0_0| Int) (|main@%assume.flag.1_0_0| Bool) (|main@%_6_0_0| Int) (|main@%shadow.mem1.1_0_0| (Array Int Int)) (|main@%_7_0_0| Int) (|main@%shadow.mem.1_0_0| (Array Int Int)) (|main@%_5_0_0| Bool) (|main@%_4_0_0| Bool) (|@nd_char_0_0| Int) (|main@%.01.i3_0_0| Int) (|main@%shadow.mem.0_0_0| (Array Int Int)) (|main@%.0.i4_0_0| Int) (|main@%shadow.mem1.0_0_0| (Array Int Int)) (|@nd_0_0| Int) (|main@%_28_0| Int) (|main@%_11_0| Int) (|.x.21| Int) (|.x.22| Int) (|main@%_7_1| Int) (|main@%_6_1| Int) (|main@%_3_1| Int) (|main@%_4_1| Bool) (|main@%_5_1| Bool) (|main@%.01.i3_2| Int) (|main@%.0.i4_2| Int) (|.x.15| Int) (|.x.16| Int) (|.x.17| Int) (|.x.18| Bool) (|.x.19| (Array Int Int)) (|.x.20| (Array Int Int)) (|main@%shadow.mem.0_2| (Array Int Int)) (|main@%shadow.mem1.0_2| (Array Int Int)) (|.xtv.1| Int) (|.xtv.2| Int)) (=> (state |.x.14| |main@%.12.i1_0_0| |main@%.1.i2_0_0| |main@%_3_0_0| |main@%assume.flag.1_0_0| |main@%_6_0_0| |main@%shadow.mem1.1_0_0| |main@%_7_0_0| |main@%shadow.mem.1_0_0| |main@%_5_0_0| |main@%_4_0_0| |@nd_char_0_0| |main@%.01.i3_0_0| |main@%shadow.mem.0_0_0| |main@%.0.i4_0_0| |main@%shadow.mem1.0_0_0| |@nd_0_0| |main@%_28_0| |main@%_11_0|) (not (= .x.14 3)))))
(check-sat)
